\ Model Split delivery VRP Problem
\ LP format - for model browsing. Use MPS format to capture full model detail.
Minimize
  16.1245154965971 X[0,1,0] + 16.1245154965971 X[0,1,1]
   + 15.13274595042156 X[0,2,0] + 15.13274595042156 X[0,2,1] + 19 X[0,3,0]
   + 19 X[0,3,1] + 18.11077027627483 X[0,4,0] + 18.11077027627483 X[0,4,1]
   + 20.09975124224178 X[0,5,0] + 20.09975124224178 X[0,5,1]
   + 1.414213562373095 X[0,6,0] + 1.414213562373095 X[0,6,1]
   + 16.1245154965971 X[1,0,0] + 16.1245154965971 X[1,0,1] + X[1,2,0]
   + X[1,2,1] + 3.605551275463989 X[1,3,0] + 3.605551275463989 X[1,3,1]
   + 4.47213595499958 X[1,4,0] + 4.47213595499958 X[1,4,1]
   + 5.656854249492381 X[1,5,0] + 5.656854249492381 X[1,5,1]
   + 15.03329637837291 X[1,6,0] + 15.03329637837291 X[1,6,1]
   + 15.13274595042156 X[2,0,0] + 15.13274595042156 X[2,0,1] + X[2,1,0]
   + X[2,1,1] + 4.47213595499958 X[2,3,0] + 4.47213595499958 X[2,3,1]
   + 5 X[2,4,0] + 5 X[2,4,1] + 6.403124237432849 X[2,5,0]
   + 6.403124237432849 X[2,5,1] + 14.0356688476182 X[2,6,0]
   + 14.0356688476182 X[2,6,1] + 19 X[3,0,0] + 19 X[3,0,1]
   + 3.605551275463989 X[3,1,0] + 3.605551275463989 X[3,1,1]
   + 4.47213595499958 X[3,2,0] + 4.47213595499958 X[3,2,1]
   + 2.23606797749979 X[3,4,0] + 2.23606797749979 X[3,4,1]
   + 2.23606797749979 X[3,5,0] + 2.23606797749979 X[3,5,1]
   + 18.02775637731995 X[3,6,0] + 18.02775637731995 X[3,6,1]
   + 18.11077027627483 X[4,0,0] + 18.11077027627483 X[4,0,1]
   + 4.47213595499958 X[4,1,0] + 4.47213595499958 X[4,1,1] + 5 X[4,2,0]
   + 5 X[4,2,1] + 2.23606797749979 X[4,3,0] + 2.23606797749979 X[4,3,1]
   + 2 X[4,5,0] + 2 X[4,5,1] + 17.26267650163207 X[4,6,0]
   + 17.26267650163207 X[4,6,1] + 20.09975124224178 X[5,0,0]
   + 20.09975124224178 X[5,0,1] + 5.656854249492381 X[5,1,0]
   + 5.656854249492381 X[5,1,1] + 6.403124237432849 X[5,2,0]
   + 6.403124237432849 X[5,2,1] + 2.23606797749979 X[5,3,0]
   + 2.23606797749979 X[5,3,1] + 2 X[5,4,0] + 2 X[5,4,1]
   + 19.23538406167134 X[5,6,0] + 19.23538406167134 X[5,6,1]
   + 1.414213562373095 X[6,0,0] + 1.414213562373095 X[6,0,1]
   + 15.03329637837291 X[6,1,0] + 15.03329637837291 X[6,1,1]
   + 14.0356688476182 X[6,2,0] + 14.0356688476182 X[6,2,1]
   + 18.02775637731995 X[6,3,0] + 18.02775637731995 X[6,3,1]
   + 17.26267650163207 X[6,4,0] + 17.26267650163207 X[6,4,1]
   + 19.23538406167134 X[6,5,0] + 19.23538406167134 X[6,5,1] + 0 Z[6,0]
   + 0 Z[6,1]
Subject To
 R0: T[0] >= 0
 R1: T[0] <= 1236
 R2: - 100000.0001 X[0,1,0] - T[0] + T[1] >= -99983.8755845034
 R3: - 100000.0001 X[0,1,1] - T[0] + T[1] >= -99983.8755845034
 R4: - 100000.0001 X[0,2,0] - T[0] + T[2] >= -99984.86735404958
 R5: - 100000.0001 X[0,2,1] - T[0] + T[2] >= -99984.86735404958
 R6: - 100000.0001 X[0,3,0] - T[0] + T[3] >= -99981.0001
 R7: - 100000.0001 X[0,3,1] - T[0] + T[3] >= -99981.0001
 R8: - 100000.0001 X[0,4,0] - T[0] + T[4] >= -99981.88932972372
 R9: - 100000.0001 X[0,4,1] - T[0] + T[4] >= -99981.88932972372
 R10: - 100000.0001 X[0,5,0] - T[0] + T[5] >= -99979.90034875776
 R11: - 100000.0001 X[0,5,1] - T[0] + T[5] >= -99979.90034875776
 R12: - 100000.0001 X[0,6,0] - T[0] + T[6] >= -99998.58588643764
 R13: - 100000.0001 X[0,6,1] - T[0] + T[6] >= -99998.58588643764
 R14: T[1] >= 65
 R15: T[1] <= 146
 R16: - 100000.0001 X[1,1,0] >= -99910.0001
 R17: - 100000.0001 X[1,1,1] >= -99910.0001
 R18: - 100000.0001 X[1,2,0] - T[1] + T[2] >= -99909.0001
 R19: - 100000.0001 X[1,2,1] - T[1] + T[2] >= -99909.0001
 R20: - 100000.0001 X[1,3,0] - T[1] + T[3] >= -99906.39454872454
 R21: - 100000.0001 X[1,3,1] - T[1] + T[3] >= -99906.39454872454
 R22: - 100000.0001 X[1,4,0] - T[1] + T[4] >= -99905.527964045
 R23: - 100000.0001 X[1,4,1] - T[1] + T[4] >= -99905.527964045
 R24: - 100000.0001 X[1,5,0] - T[1] + T[5] >= -99904.34324575051
 R25: - 100000.0001 X[1,5,1] - T[1] + T[5] >= -99904.34324575051
 R26: - 100000.0001 X[1,6,0] - T[1] + T[6] >= -99894.96680362163
 R27: - 100000.0001 X[1,6,1] - T[1] + T[6] >= -99894.96680362163
 R28: T[2] >= 15
 R29: T[2] <= 67
 R30: - 100000.0001 X[2,1,0] + T[1] - T[2] >= -99909.0001
 R31: - 100000.0001 X[2,1,1] + T[1] - T[2] >= -99909.0001
 R32: - 100000.0001 X[2,2,0] >= -99910.0001
 R33: - 100000.0001 X[2,2,1] >= -99910.0001
 R34: - 100000.0001 X[2,3,0] - T[2] + T[3] >= -99905.527964045
 R35: - 100000.0001 X[2,3,1] - T[2] + T[3] >= -99905.527964045
 R36: - 100000.0001 X[2,4,0] - T[2] + T[4] >= -99905.0001
 R37: - 100000.0001 X[2,4,1] - T[2] + T[4] >= -99905.0001
 R38: - 100000.0001 X[2,5,0] - T[2] + T[5] >= -99903.59697576257
 R39: - 100000.0001 X[2,5,1] - T[2] + T[5] >= -99903.59697576257
 R40: - 100000.0001 X[2,6,0] - T[2] + T[6] >= -99895.96443115239
 R41: - 100000.0001 X[2,6,1] - T[2] + T[6] >= -99895.96443115239
 R42: T[3] >= 621
 R43: T[3] <= 702
 R44: - 100000.0001 X[3,1,0] + T[1] - T[3] >= -99906.39454872454
 R45: - 100000.0001 X[3,1,1] + T[1] - T[3] >= -99906.39454872454
 R46: - 100000.0001 X[3,2,0] + T[2] - T[3] >= -99905.527964045
 R47: - 100000.0001 X[3,2,1] + T[2] - T[3] >= -99905.527964045
 R48: - 100000.0001 X[3,3,0] >= -99910.0001
 R49: - 100000.0001 X[3,3,1] >= -99910.0001
 R50: - 100000.0001 X[3,4,0] - T[3] + T[4] >= -99907.7640320225
 R51: - 100000.0001 X[3,4,1] - T[3] + T[4] >= -99907.7640320225
 R52: - 100000.0001 X[3,5,0] - T[3] + T[5] >= -99907.7640320225
 R53: - 100000.0001 X[3,5,1] - T[3] + T[5] >= -99907.7640320225
 R54: - 100000.0001 X[3,6,0] - T[3] + T[6] >= -99891.97234362268
 R55: - 100000.0001 X[3,6,1] - T[3] + T[6] >= -99891.97234362268
 R56: T[4] >= 255
 R57: T[4] <= 324
 R58: - 100000.0001 X[4,1,0] + T[1] - T[4] >= -99905.527964045
 R59: - 100000.0001 X[4,1,1] + T[1] - T[4] >= -99905.527964045
 R60: - 100000.0001 X[4,2,0] + T[2] - T[4] >= -99905.0001
 R61: - 100000.0001 X[4,2,1] + T[2] - T[4] >= -99905.0001
 R62: - 100000.0001 X[4,3,0] + T[3] - T[4] >= -99907.7640320225
 R63: - 100000.0001 X[4,3,1] + T[3] - T[4] >= -99907.7640320225
 R64: - 100000.0001 X[4,4,0] >= -99910.0001
 R65: - 100000.0001 X[4,4,1] >= -99910.0001
 R66: - 100000.0001 X[4,5,0] - T[4] + T[5] >= -99908.0001
 R67: - 100000.0001 X[4,5,1] - T[4] + T[5] >= -99908.0001
 R68: - 100000.0001 X[4,6,0] - T[4] + T[6] >= -99892.73742349837
 R69: - 100000.0001 X[4,6,1] - T[4] + T[6] >= -99892.73742349837
 R70: T[5] >= 534
 R71: T[5] <= 605
 R72: - 100000.0001 X[5,1,0] + T[1] - T[5] >= -99904.34324575051
 R73: - 100000.0001 X[5,1,1] + T[1] - T[5] >= -99904.34324575051
 R74: - 100000.0001 X[5,2,0] + T[2] - T[5] >= -99903.59697576257
 R75: - 100000.0001 X[5,2,1] + T[2] - T[5] >= -99903.59697576257
 R76: - 100000.0001 X[5,3,0] + T[3] - T[5] >= -99907.7640320225
 R77: - 100000.0001 X[5,3,1] + T[3] - T[5] >= -99907.7640320225
 R78: - 100000.0001 X[5,4,0] + T[4] - T[5] >= -99908.0001
 R79: - 100000.0001 X[5,4,1] + T[4] - T[5] >= -99908.0001
 R80: - 100000.0001 X[5,5,0] >= -99910.0001
 R81: - 100000.0001 X[5,5,1] >= -99910.0001
 R82: - 100000.0001 X[5,6,0] - T[5] + T[6] >= -99890.76471593833
 R83: - 100000.0001 X[5,6,1] - T[5] + T[6] >= -99890.76471593833
 R84: T[6] >= 448
 R85: T[6] <= 505
 R86: - 100000.0001 X[6,1,0] + T[1] - T[6] >= -99894.96680362163
 R87: - 100000.0001 X[6,1,1] + T[1] - T[6] >= -99894.96680362163
 R88: - 100000.0001 X[6,2,0] + T[2] - T[6] >= -99895.96443115239
 R89: - 100000.0001 X[6,2,1] + T[2] - T[6] >= -99895.96443115239
 R90: - 100000.0001 X[6,3,0] + T[3] - T[6] >= -99891.97234362268
 R91: - 100000.0001 X[6,3,1] + T[3] - T[6] >= -99891.97234362268
 R92: - 100000.0001 X[6,4,0] + T[4] - T[6] >= -99892.73742349837
 R93: - 100000.0001 X[6,4,1] + T[4] - T[6] >= -99892.73742349837
 R94: - 100000.0001 X[6,5,0] + T[5] - T[6] >= -99890.76471593833
 R95: - 100000.0001 X[6,5,1] + T[5] - T[6] >= -99890.76471593833
 R96: - 100000.0001 X[6,6,0] >= -99910.0001
 R97: - 100000.0001 X[6,6,1] >= -99910.0001
 R98: Z[6,0] + Z[6,1] = 1
 R99: Z[6,0] + Z[6,1] = 1
 R100: Z[6,0] + Z[6,1] = 1
 R101: Z[6,0] + Z[6,1] = 1
 R102: Z[6,0] + Z[6,1] = 1
 R103: Z[6,0] + Z[6,1] = 1
 R104: X[0,0,0] + X[0,0,1] + X[1,0,0] + X[1,0,1] + X[2,0,0] + X[2,0,1]
   + X[3,0,0] + X[3,0,1] + X[4,0,0] + X[4,0,1] + X[5,0,0] + X[5,0,1]
   + X[6,0,0] + X[6,0,1] = 2
 R105: 20 Z[6,0] + 20 Z[6,0] + 20 Z[6,0] + 20 Z[6,0] + 10 Z[6,0]
   + 30 Z[6,0] <= 60
 R106: 20 Z[6,1] + 20 Z[6,1] + 20 Z[6,1] + 20 Z[6,1] + 10 Z[6,1]
   + 30 Z[6,1] <= 60
 R107: - X[0,1,0] - X[0,2,0] - X[0,3,0] - X[0,4,0] - X[0,5,0] - X[0,6,0]
   + X[1,0,0] + X[2,0,0] + X[3,0,0] + X[4,0,0] + X[5,0,0] + X[6,0,0] = 0
 R108: - X[0,1,1] - X[0,2,1] - X[0,3,1] - X[0,4,1] - X[0,5,1] - X[0,6,1]
   + X[1,0,1] + X[2,0,1] + X[3,0,1] + X[4,0,1] + X[5,0,1] + X[6,0,1] = 0
 R109: X[0,1,0] - X[1,0,0] - X[1,2,0] - X[1,3,0] - X[1,4,0] - X[1,5,0]
   - X[1,6,0] + X[2,1,0] + X[3,1,0] + X[4,1,0] + X[5,1,0] + X[6,1,0] = 0
 R110: X[0,1,1] - X[1,0,1] - X[1,2,1] - X[1,3,1] - X[1,4,1] - X[1,5,1]
   - X[1,6,1] + X[2,1,1] + X[3,1,1] + X[4,1,1] + X[5,1,1] + X[6,1,1] = 0
 R111: X[0,2,0] + X[1,2,0] - X[2,0,0] - X[2,1,0] - X[2,3,0] - X[2,4,0]
   - X[2,5,0] - X[2,6,0] + X[3,2,0] + X[4,2,0] + X[5,2,0] + X[6,2,0] = 0
 R112: X[0,2,1] + X[1,2,1] - X[2,0,1] - X[2,1,1] - X[2,3,1] - X[2,4,1]
   - X[2,5,1] - X[2,6,1] + X[3,2,1] + X[4,2,1] + X[5,2,1] + X[6,2,1] = 0
 R113: X[0,3,0] + X[1,3,0] + X[2,3,0] - X[3,0,0] - X[3,1,0] - X[3,2,0]
   - X[3,4,0] - X[3,5,0] - X[3,6,0] + X[4,3,0] + X[5,3,0] + X[6,3,0] = 0
 R114: X[0,3,1] + X[1,3,1] + X[2,3,1] - X[3,0,1] - X[3,1,1] - X[3,2,1]
   - X[3,4,1] - X[3,5,1] - X[3,6,1] + X[4,3,1] + X[5,3,1] + X[6,3,1] = 0
 R115: X[0,4,0] + X[1,4,0] + X[2,4,0] + X[3,4,0] - X[4,0,0] - X[4,1,0]
   - X[4,2,0] - X[4,3,0] - X[4,5,0] - X[4,6,0] + X[5,4,0] + X[6,4,0] = 0
 R116: X[0,4,1] + X[1,4,1] + X[2,4,1] + X[3,4,1] - X[4,0,1] - X[4,1,1]
   - X[4,2,1] - X[4,3,1] - X[4,5,1] - X[4,6,1] + X[5,4,1] + X[6,4,1] = 0
 R117: X[0,5,0] + X[1,5,0] + X[2,5,0] + X[3,5,0] + X[4,5,0] - X[5,0,0]
   - X[5,1,0] - X[5,2,0] - X[5,3,0] - X[5,4,0] - X[5,6,0] + X[6,5,0] = 0
 R118: X[0,5,1] + X[1,5,1] + X[2,5,1] + X[3,5,1] + X[4,5,1] - X[5,0,1]
   - X[5,1,1] - X[5,2,1] - X[5,3,1] - X[5,4,1] - X[5,6,1] + X[6,5,1] = 0
 R119: X[0,6,0] + X[1,6,0] + X[2,6,0] + X[3,6,0] + X[4,6,0] + X[5,6,0]
   - X[6,0,0] - X[6,1,0] - X[6,2,0] - X[6,3,0] - X[6,4,0] - X[6,5,0] = 0
 R120: X[0,6,1] + X[1,6,1] + X[2,6,1] + X[3,6,1] + X[4,6,1] + X[5,6,1]
   - X[6,0,1] - X[6,1,1] - X[6,2,1] - X[6,3,1] - X[6,4,1] - X[6,5,1] = 0
 R121: X[0,1,0] + X[1,1,0] + X[2,1,0] + X[3,1,0] + X[4,1,0] + X[5,1,0]
   + X[6,1,0] - Z[6,0] >= 0
 R122: X[0,1,1] + X[1,1,1] + X[2,1,1] + X[3,1,1] + X[4,1,1] + X[5,1,1]
   + X[6,1,1] - Z[6,1] >= 0
 R123: X[0,2,0] + X[1,2,0] + X[2,2,0] + X[3,2,0] + X[4,2,0] + X[5,2,0]
   + X[6,2,0] - Z[6,0] >= 0
 R124: X[0,2,1] + X[1,2,1] + X[2,2,1] + X[3,2,1] + X[4,2,1] + X[5,2,1]
   + X[6,2,1] - Z[6,1] >= 0
 R125: X[0,3,0] + X[1,3,0] + X[2,3,0] + X[3,3,0] + X[4,3,0] + X[5,3,0]
   + X[6,3,0] - Z[6,0] >= 0
 R126: X[0,3,1] + X[1,3,1] + X[2,3,1] + X[3,3,1] + X[4,3,1] + X[5,3,1]
   + X[6,3,1] - Z[6,1] >= 0
 R127: X[0,4,0] + X[1,4,0] + X[2,4,0] + X[3,4,0] + X[4,4,0] + X[5,4,0]
   + X[6,4,0] - Z[6,0] >= 0
 R128: X[0,4,1] + X[1,4,1] + X[2,4,1] + X[3,4,1] + X[4,4,1] + X[5,4,1]
   + X[6,4,1] - Z[6,1] >= 0
 R129: X[0,5,0] + X[1,5,0] + X[2,5,0] + X[3,5,0] + X[4,5,0] + X[5,5,0]
   + X[6,5,0] - Z[6,0] >= 0
 R130: X[0,5,1] + X[1,5,1] + X[2,5,1] + X[3,5,1] + X[4,5,1] + X[5,5,1]
   + X[6,5,1] - Z[6,1] >= 0
 R131: X[0,6,0] + X[1,6,0] + X[2,6,0] + X[3,6,0] + X[4,6,0] + X[5,6,0]
   + X[6,6,0] - Z[6,0] >= 0
 R132: X[0,6,1] + X[1,6,1] + X[2,6,1] + X[3,6,1] + X[4,6,1] + X[5,6,1]
   + X[6,6,1] - Z[6,1] >= 0
Bounds
 Z[6,0] <= 1
 Z[6,1] <= 1
 Z[6,0] <= 1
 Z[6,1] <= 1
 Z[6,0] <= 1
 Z[6,1] <= 1
 Z[6,0] <= 1
 Z[6,1] <= 1
 Z[6,0] <= 1
 Z[6,1] <= 1
 Z[6,0] <= 1
 Z[6,1] <= 1
 Z[6,0] <= 1
 Z[6,1] <= 1
Binaries
 X[0,0,0] X[0,0,1] X[0,1,0] X[0,1,1] X[0,2,0] X[0,2,1] X[0,3,0] X[0,3,1]
 X[0,4,0] X[0,4,1] X[0,5,0] X[0,5,1] X[0,6,0] X[0,6,1] X[1,0,0] X[1,0,1]
 X[1,1,0] X[1,1,1] X[1,2,0] X[1,2,1] X[1,3,0] X[1,3,1] X[1,4,0] X[1,4,1]
 X[1,5,0] X[1,5,1] X[1,6,0] X[1,6,1] X[2,0,0] X[2,0,1] X[2,1,0] X[2,1,1]
 X[2,2,0] X[2,2,1] X[2,3,0] X[2,3,1] X[2,4,0] X[2,4,1] X[2,5,0] X[2,5,1]
 X[2,6,0] X[2,6,1] X[3,0,0] X[3,0,1] X[3,1,0] X[3,1,1] X[3,2,0] X[3,2,1]
 X[3,3,0] X[3,3,1] X[3,4,0] X[3,4,1] X[3,5,0] X[3,5,1] X[3,6,0] X[3,6,1]
 X[4,0,0] X[4,0,1] X[4,1,0] X[4,1,1] X[4,2,0] X[4,2,1] X[4,3,0] X[4,3,1]
 X[4,4,0] X[4,4,1] X[4,5,0] X[4,5,1] X[4,6,0] X[4,6,1] X[5,0,0] X[5,0,1]
 X[5,1,0] X[5,1,1] X[5,2,0] X[5,2,1] X[5,3,0] X[5,3,1] X[5,4,0] X[5,4,1]
 X[5,5,0] X[5,5,1] X[5,6,0] X[5,6,1] X[6,0,0] X[6,0,1] X[6,1,0] X[6,1,1]
 X[6,2,0] X[6,2,1] X[6,3,0] X[6,3,1] X[6,4,0] X[6,4,1] X[6,5,0] X[6,5,1]
 X[6,6,0] X[6,6,1]
End
